NAME: random-58-25305
TYPE: TSP
COMMENT: size=58 seed=25305
DIMENSION: 118
EDGE_WEIGHT_TYPE: EUC_2D
NODE_COORD_SECTION
+0 135 729
-0 135 729
+1 443 580
-1 990 624
+2 232 401
-2 712 804
+3 591 332
-3 291 27
+4 734 827
-4 6 583
+5 507 979
-5 357 917
+6 236 114
-6 626 881
+7 558 454
-7 940 241
+8 433 388
-8 28 730
+9 419 865
-9 129 537
+10 538 599
-10 823 719
+11 483 392
-11 539 366
+12 870 64
-12 93 82
+13 588 388
-13 863 639
+14 603 175
-14 121 211
+15 86 528
-15 37 89
+16 303 665
-16 87 575
+17 539 263
-17 400 365
+18 558 737
-18 790 726
+19 498 731
-19 935 15
+20 366 386
-20 398 418
+21 95 765
-21 415 888
+22 278 95
-22 40 618
+23 371 774
-23 534 301
+24 111 567
-24 285 303
+25 193 105
-25 906 276
+26 602 335
-26 297 193
+27 642 462
-27 520 510
+28 874 995
-28 958 261
+29 136 894
-29 245 560
+30 906 529
-30 645 939
+31 515 473
-31 214 360
+32 511 765
-32 395 825
+33 822 933
-33 274 688
+34 660 909
-34 529 946
+35 946 583
-35 859 429
+36 226 29
-36 764 877
+37 315 263
-37 386 850
+38 692 357
-38 4 834
+39 863 887
-39 715 743
+40 178 98
-40 368 329
+41 44 718
-41 676 749
+42 158 716
-42 537 253
+43 911 802
-43 114 82
+44 9 49
-44 416 748
+45 357 270
-45 870 723
+46 952 863
-46 821 925
+47 152 852
-47 445 699
+48 951 939
-48 103 911
+49 932 238
-49 396 764
+50 622 432
-50 77 83
+51 33 888
-51 702 66
+52 846 113
-52 994 728
+53 280 548
-53 498 832
+54 926 919
-54 562 124
+55 788 992
-55 47 777
+56 644 211
-56 505 382
+57 877 640
-57 543 713
+58 362 386
-58 63 0
PRECEDENCE_SECTION
+0 -0
+1 -1
+2 -2
+3 -3
+4 -4
+5 -5
+6 -6
+7 -7
+8 -8
+9 -9
+10 -10
+11 -11
+12 -12
+13 -13
+14 -14
+15 -15
+16 -16
+17 -17
+18 -18
+19 -19
+20 -20
+21 -21
+22 -22
+23 -23
+24 -24
+25 -25
+26 -26
+27 -27
+28 -28
+29 -29
+30 -30
+31 -31
+32 -32
+33 -33
+34 -34
+35 -35
+36 -36
+37 -37
+38 -38
+39 -39
+40 -40
+41 -41
+42 -42
+43 -43
+44 -44
+45 -45
+46 -46
+47 -47
+48 -48
+49 -49
+50 -50
+51 -51
+52 -52
+53 -53
+54 -54
+55 -55
+56 -56
+57 -57
+58 -58
EOF
